Set parameter TokenServer to value "opt-license.discovery.wisc.edu"
Set parameter PreCrush to value 1
Set parameter LazyConstraints to value 1
Set parameter TimeLimit to value 1800
Gurobi Optimizer version 9.5.1 build v9.5.1rc2 (linux64)
Thread count: 40 physical cores, 80 logical processors, using up to 32 threads
Optimize a model with 5041 rows, 4900 columns and 19530 nonzeros
Model fingerprint: 0x0fb71f19
Variable types: 0 continuous, 4900 integer (4900 binary)
Coefficient statistics:
  Matrix range     [1e+00, 2e+03]
  Objective range  [1e+00, 1e+01]
  Bounds range     [1e+00, 1e+00]
  RHS range        [1e+00, 6e+00]
Presolve removed 70 rows and 0 columns
Presolve time: 0.08s
Presolved: 4971 rows, 4900 columns, 19530 nonzeros
Variable types: 0 continuous, 4900 integer (4900 binary)

Root relaxation: objective 9.200306e+01, 1405 iterations, 0.09 seconds (0.06 work units)

    Nodes    |    Current Node    |     Objective Bounds      |     Work
 Expl Unexpl |  Obj  Depth IntInf | Incumbent    BestBd   Gap | It/Node Time

     0     0   92.00306    0  165          -   92.00306      -     -    1s
     0     0   92.15577    0  215          -   92.15577      -     -    2s
     0     0   92.16570    0  217          -   92.16570      -     -    3s
     0     0   92.30619    0  218          -   92.30619      -     -    4s
     0     0   92.30766    0  219          -   92.30766      -     -    5s
     0     0   92.32340    0  271          -   92.32340      -     -    6s
     0     0   92.32366    0  271          -   92.32366      -     -    7s
     0     0   92.32366    0  271          -   92.32366      -     -    8s
H    0     0                      93.3597277   92.32366  1.11%     -    9s
     0     0   92.35995    0  141   93.35973   92.35995  1.07%     -    9s
     0     0   92.35995    0  178   93.35973   92.35995  1.07%     -   10s
H    0     0                      92.7739412   92.35995  0.45%     -   10s
     0     0   92.35995    0  156   92.77394   92.35995  0.45%     -   11s
     0     0   92.35995    0  189   92.77394   92.35995  0.45%     -   12s
     0     0   92.35995    0  189   92.77394   92.35995  0.45%     -   13s
     0     0   92.53787    0   13   92.77394   92.53787  0.25%     -   13s
*    0     0               0      92.5378732   92.53787  0.00%     -   14s

Cutting planes:
  Gomory: 2
  Lift-and-project: 1
  Clique: 4
  StrongCG: 2
  RLT: 1

Explored 1 nodes (3373 simplex iterations) in 14.60 seconds (0.66 work units)
Thread count was 32 (of 80 available processors)

Solution count 3: 92.5379 92.7739 93.3597 

Optimal solution found (tolerance 1.00e-04)
Best objective 9.253787324945e+01, best bound 9.253787324945e+01, gap 0.0000%

User-callback calls 761, time in user-callback 12.68 sec
cuts :  0
